10,1,12,1,9,1,12,2,5,1,1,2,5,2,18,1,17,3,5,4,3,2,8,4,6,4,18,2,18,3,20,4,20,5,2,4,14,3,12,5;17,1,6,1,13,2,9,2,6,2,17,2,10,4,13,3,3,1,16,5,11,3,8,5,11,4,7,5,3,3,4,5,14,4,14,5;20,1,20,2,15,1,10,2,11,2,16,2,16,3,4,3,8,3,1,3,15,3,14,1,12,4,4,4,5,5,2,3,1,4,2,5,11,5,18,4,19,5;16,1,11,1,8,1,4,2,2,1,7,1,15,2,16,4,12,3,5,3,10,5,6,3,20,3,9,3,19,4,17,4,13,5,9,5,1,5;4,1,13,1,8,2,1,1,19,1,19,2,2,2,10,3,19,3,7,2,13,4,15,4,7,3,9,4,14,2,7,4,15,5,6,5,17,5,3,4,18,5,3,5;
